Version identifier: 20.1.0.0 | 2020-11-10 | 9bedb6d68
CPXPARAM_Threads                                 1
CPXPARAM_TimeLimit                               7200
CPXPARAM_MIP_Tolerances_MIPGap                   0
Generic callback                                 0x60
1 of 1 MIP starts provided solutions.
MIP start 'm1' defined initial solution with objective 499.2940.
Tried aggregator 1 time.
Reduced MIP has 1 rows, 1001 columns, and 1000 nonzeros.
Reduced MIP has 1000 binaries, 0 generals, 0 SOSs, and 0 indicators.
Presolve time = 0.00 sec. (0.30 ticks)
Probing time = 0.00 sec. (0.11 ticks)
Tried aggregator 1 time.
Reduced MIP has 1 rows, 1001 columns, and 1000 nonzeros.
Reduced MIP has 1000 binaries, 0 generals, 0 SOSs, and 0 indicators.
Presolve time = 0.00 sec. (0.31 ticks)
Probing time = 0.00 sec. (0.11 ticks)
MIP emphasis: balance optimality and feasibility.
MIP search method: dynamic search.
Parallel mode: none, using 1 thread.
Root relaxation solution time = 0.00 sec. (0.21 ticks)

        Nodes                                         Cuts/
   Node  Left     Objective  IInf  Best Integer    Best Bound    ItCnt     Gap

*     0+    0                          499.2940     2716.0000           443.97%
      0     0      647.8346     2      499.2940     2716.0000        0  443.97%
      0     0      592.0064     3      499.2940 UserPurge2: 1       12   18.57%
      0     0      548.5324     3      499.2940 UserPurge2: 1       30    9.86%

Repeating presolve.
Tried aggregator 1 time.
MIP Presolve eliminated 0 rows and 370 columns.
Reduced MIP has 1 rows, 631 columns, and 630 nonzeros.
Reduced MIP has 630 binaries, 0 generals, 0 SOSs, and 0 indicators.
Presolve time = 0.00 sec. (0.26 ticks)
Probing time = 0.00 sec. (0.07 ticks)
Tried aggregator 1 time.
Reduced MIP has 1 rows, 631 columns, and 630 nonzeros.
Reduced MIP has 630 binaries, 0 generals, 0 SOSs, and 0 indicators.
Presolve time = 0.00 sec. (0.19 ticks)
Represolve time = 0.00 sec. (1.35 ticks)
Probing time = 0.00 sec. (0.07 ticks)
MIP emphasis: balance optimality and feasibility.
MIP search method: dynamic search.
Parallel mode: none, using 1 thread.
Root relaxation solution time = 0.00 sec. (1.01 ticks)

        Nodes                                         Cuts/
   Node  Left     Objective  IInf  Best Integer    Best Bound    ItCnt     Gap

*     0+    0                          499.2940      548.5324             9.86%
      0     0      542.0549     4      499.2940      542.0549       51    8.56%
      0     0      526.8036     3      499.2940 UserPurge2: 1       61    5.51%
      0     0      525.7011     4      499.2940 UserPurge2: 1       65    5.29%
      0     0      521.0123     4      499.2940 UserPurge2: 1       71    4.35%
      0     0      516.2965     4      499.2940 UserPurge2: 1       87    3.41%
      0     0      511.9386     5      499.2940 UserPurge2: 1       97    2.53%
      0     2      511.9386     5      499.2940      511.8722       97    2.52%
Elapsed time = 5.46 sec. (18.92 ticks, tree = 0.01 MB, solutions = 1)
*     5     3      integral     0      501.3853      501.7781     1252    0.08%
*     8     0      integral     0      501.4551      501.4551     1319    0.00%

User cuts applied:  220

Root node processing (before b&c):
  Real time             =    5.47 sec. (19.35 ticks)
Sequential b&c:
  Real time             =   61.08 sec. (196.47 ticks)
                          ------------
Total (root+branch&cut) =   66.55 sec. (215.82 ticks)
@Parameters: 
is_S_cut                                true
is_add_all_yinF                         true
is_start_value                          true
is_usercut                              true
is_visualization                        false
uc_only_rootnode                        false

data                                    Qi
fn                                      data/Qi/instance_500_1000.csv
mode                                    NewSubmodular
solver                                  cplex

p                                       2
r                                       50

EPS                                     1.0e-06
EPS_vio                                 1.0e-04
beta                                    0.10
gap                                     0.00
nodelimit                               Inf
timelimit                               7200.00


@PrintInfos
ItCnt: 1319
Current gap: 0.00 %
Termination Status: OPTIMAL
Primal Status: FEASIBLE_POINT
Solve Time: 66.55 sec
Objective Value: 501.455051
Number of Nodes:      9

CutInfo: [phase] num / time (sec) 
ZLP             [phase1]     0 / 0.00 [rLC]     0 / 0.00 [rUC]     0 / 0.00 [sLC]     0 / 0.00 [sUC]     0 / 0.00 
OldSubmodular   [phase1]     0 / 0.00 [rLC]     0 / 0.00 [rUC]     0 / 0.00 [sLC]     0 / 0.00 [sUC]     0 / 0.00 
NewSubmodular   [phase1]     0 / 0.00 [rLC]    10 / 2.71 [rUC]     9 / 0.75 [sLC]     2 / 1.21 [sUC]   212 / 59.63 
PMP             [phase1]     0 / 0.00 [rLC]     2 / 0.62 [rUC]     0 / 0.00 [sLC]     4 / 1.11 [sUC]     5 / 1.61 
Separation Round: [phase1] 0  [rLC] 11  [rUC] 9  [sLC] 4  [sUC] 120
Root Best Bound 501.778079
Root Best Integer: 499.294005
Best Bound: 501.455051
Best Integer: 501.455051

